product = {axe, sword, pike, spear, club};
resource = {iron, wood, smith, carpenter};
profit = [11, 18, 15, 17, 11];
capacity = [5000, 7500, 4000, 3000];

consumption = [|1.5, 1.0, 1.0, 1.0
| 2.0, 0.0, 2.0, 0.0
|1.5, 0.5, 1.0, 1.0
|0.5, 1.0, 0.9, 1.5
|0.1, 2.5, 0.1, 2.5 |];

% consumption = array2d(1..5, 1..4,
% [1.5, 1.0, 1.0, 1.0,
% 2.0, 0.0, 2.0, 0.0,
% 1.5, 0.5, 1.0, 1.0,
% 0.5, 1.0, 0.9, 1.5,
% 0.1, 2.5, 0.1, 2.5];

% [i + j | i, j in 1..4 where i < j]
% =[1+2, 1+3, 1+4, 2+3, 2+4, 3+4]
% =[3, 4, 5, 5, 6, 7]
